Route #1: 2 40 7 25 49 9 34
Route #2: 5 36 33
Route #3: 32 28 29 19 6
Route #4: 4 18 26 47 24 16 11 43
Route #5: 8 17 42 21 1
Route #6: 10 35 39 45 41 14
Route #7: 3 13 38 22 46 23 15
Route #8: 48 37 12 27 20 30 31 44
Cost 1347